words_train/words_867_SAT.qaiger
aag 57 16 0 1 41
26
28
18
30
32
16
22
2
6
20
4
12
10
24
14
8
115
34 33 16
36 7 5
38 36 9
40 38 11
42 32 13
44 43 41
46 44 35
48 27 6
50 26 7
52 51 49
54 24 4
56 55 53
58 16 12
60 59 14
62 25 5
64 63 52
66 65 61
68 66 57
70 39 10
72 43 17
74 73 71
76 74 31
78 77 68
80 78 47
82 71 41
84 83 30
86 37 8
88 87 39
90 89 28
92 23 2
94 22 3
96 95 93
98 33 12
100 99 17
102 101 15
104 103 96
106 104 91
108 88 29
110 109 106
112 110 85
114 112 80
i0 2 y[4]
i1 2 y[5]
i2 2 y[0]
i3 2 y[6]
i4 2 y[7]
i5 1 x[7]
i6 2 y[2]
i7 1 x[0]
i8 1 x[2]
i9 2 y[1]
i10 1 x[1]
i11 1 x[5]
i12 1 x[4]
i13 2 y[3]
i14 1 x[6]
i15 1 x[3]
o0 bool[0]
c
simplified
  !=
    subtract
      abs
        1
      1 x
    xor
      1
      >> 2
        2 y
