words_train/words_867_SAT.qaiger.qdimacs
p cnf 57 124
a 1 2 3 4 5 6 7 8 0
e 9 10 11 12 13 14 15 16 17 18 19 20 21 22 23 24 25 26 27 28 29 30 31 32 33 34 35 36 37 38 39 40 41 42 43 44 45 46 47 48 49 50 51 52 53 54 55 56 57 0
16 -8 17 0
-16 -17 0
8 -17 0
3 2 18 0
-3 -18 0
-2 -18 0
-18 4 19 0
18 -19 0
-4 -19 0
-19 5 20 0
19 -20 0
-5 -20 0
-16 6 21 0
16 -21 0
-6 -21 0
21 20 22 0
-21 -22 0
-20 -22 0
-22 17 23 0
22 -23 0
-17 -23 0
13 -3 24 0
-13 -24 0
3 -24 0
-13 3 25 0
13 -25 0
-3 -25 0
25 24 26 0
-25 -26 0
-24 -26 0
-12 -2 27 0
12 -27 0
2 -27 0
27 26 28 0
-27 -28 0
-26 -28 0
-8 -6 29 0
8 -29 0
6 -29 0
29 -7 30 0
-29 -30 0
7 -30 0
12 2 31 0
-12 -31 0
-2 -31 0
31 -26 32 0
-31 -32 0
26 -32 0
32 30 33 0
-32 -33 0
-30 -33 0
-33 28 34 0
33 -34 0
-28 -34 0
19 -5 35 0
-19 -35 0
5 -35 0
21 8 36 0
-21 -36 0
-8 -36 0
36 35 37 0
-36 -37 0
-35 -37 0
-37 15 38 0
37 -38 0
-15 -38 0
38 -34 39 0
-38 -39 0
34 -39 0
-39 23 40 0
39 -40 0
-23 -40 0
35 20 41 0
-35 -41 0
-20 -41 0
41 -15 42 0
-41 -42 0
15 -42 0
18 -4 43 0
-18 -43 0
4 -43 0
43 19 44 0
-43 -44 0
-19 -44 0
44 -14 45 0
-44 -45 0
14 -45 0
11 -1 46 0
-11 -46 0
1 -46 0
-11 1 47 0
11 -47 0
-1 -47 0
47 46 48 0
-47 -48 0
-46 -48 0
16 -6 49 0
-16 -49 0
6 -49 0
49 8 50 0
-49 -50 0
-8 -50 0
50 7 51 0
-50 -51 0
-7 -51 0
51 -48 52 0
-51 -52 0
48 -52 0
-52 45 53 0
52 -53 0
-45 -53 0
-44 14 54 0
44 -54 0
-14 -54 0
54 -53 55 0
-54 -55 0
53 -55 0
-55 42 56 0
55 -56 0
-42 -56 0
-56 -40 57 0
56 -57 0
40 -57 0
-57 0
